50, 6878
756, 360
84, 40
102, 342
420, 200
168, 80
756, 360
672, 320
306, 1026
136, 456
168, 80
238, 798
204, 684
68, 228
170, 570
504, 240
168, 80
34, 114
306, 1026
420, 200
170, 570
204, 684
84, 40
102, 342
420, 200
238, 798
170, 570
238, 798
34, 114
84, 40
756, 360
102, 342
340, 1140
168, 80
588, 280
170, 570
170, 570
238, 798
336, 160
168, 80
420, 200
672, 320
238, 798
84, 40
102, 342
756, 360
84, 40
168, 80
252, 120
238, 798
420, 200
